40 40 40
50
12 24 35
14 14 27
6 21 28
16 17 23
35 9 14
27 18 24
14 19 29
30 32 27
15 25 28
2 10 35
23 19 2
5 33 8
1 17 33
16 31 26
2 13 13
11 25 25
24 16 29
7 15 28
2 3 8
29 23 4
14 22 14
6 13 18
7 25 20
1 20 16
25 34 13
22 28 25
24 33 8
18 30 35
25 34 1
9 12 33
32 13 9
13 26 5
16 1 22
7 33 26
17 16 15
9 7 8
4 13 4
7 19 25
27 19 34
29 34 10
18 31 10
20 16 34
35 16 8
33 8 20
3 8 27
14 32 5
28 28 6
3 19 8
28 5 18
17 14 34
